SAT
-30 -96 -7 78 17 -72 62 73 77 -97 -21 -69 20 50 31 48 52 -4 -24 -66 -84 99 -51 -63 -93 -67 -44 -37 70 32 -47 41 -19 -1 13 74 -83 -6 79 -58 -81 -87 -45 -27 98 -65 -12 42 36 -14 91 82 -34 33 -64 29 -88 -25 -68 -90 95 -11 -86 35 80 8 89 60 -43 22 -85 57 -26 76 38 16 28 56 -39 -55 -2 -9 3 -5 18 100 46 23 71 92 49 61 -75 -15 -94 59 -53 -10 54 -40 0
